p cnf 960 2464
51 -2 -694 0
-51 2 0
-51 694 0
52 -51 -3 0
-52 51 0
-52 3 0
53 -5 -4 0
-53 5 0
-53 4 0
54 -53 -6 0
-54 53 0
-54 6 0
55 -695 -696 0
-55 695 0
-55 696 0
56 -7 -1 0
-56 7 0
-56 1 0
57 -56 -8 0
-57 56 0
-57 8 0
58 -697 -55 0
-58 697 0
-58 55 0
59 -698 -9 0
-59 698 0
-59 9 0
60 -59 -11 0
-60 59 0
-60 11 0
61 -699 -58 0
-61 699 0
-61 58 0
62 -13 -12 0
-62 13 0
-62 12 0
63 -62 -700 0
-63 62 0
-63 700 0
64 -701 -61 0
-64 701 0
-64 61 0
65 -16 -15 0
-65 16 0
-65 15 0
66 -65 -700 0
-66 65 0
-66 700 0
67 -702 -64 0
-67 702 0
-67 64 0
68 -703 -4 0
-68 703 0
-68 4 0
69 -68 -704 0
-69 68 0
-69 704 0
70 -705 -67 0
-70 705 0
-70 67 0
71 -706 -707 0
-71 706 0
-71 707 0
72 -71 -21 0
-72 71 0
-72 21 0
73 -708 -70 0
-73 708 0
-73 70 0
74 -709 -22 0
-74 709 0
-74 22 0
75 -74 -710 0
-75 74 0
-75 710 0
76 -711 -73 0
-76 711 0
-76 73 0
77 -25 -24 0
-77 25 0
-77 24 0
78 -77 -700 0
-78 77 0
-78 700 0
79 -712 -76 0
-79 712 0
-79 76 0
80 -713 -714 0
-80 713 0
-80 714 0
81 -80 -707 0
-81 80 0
-81 707 0
82 -715 -79 0
-82 715 0
-82 79 0
83 -17 -8 0
-83 17 0
-83 8 0
84 -83 -716 0
-84 83 0
-84 716 0
85 -717 -82 0
-85 717 0
-85 82 0
86 -718 -28 0
-86 718 0
-86 28 0
87 -86 -719 0
-87 86 0
-87 719 0
88 -720 -85 0
-88 720 0
-88 85 0
89 -31 -17 0
-89 31 0
-89 17 0
90 -89 -721 0
-90 89 0
-90 721 0
91 -722 -88 0
-91 722 0
-91 88 0
92 -707 -2 0
-92 707 0
-92 2 0
93 -92 -16 0
-93 92 0
-93 16 0
94 -723 -91 0
-94 723 0
-94 91 0
95 -724 -23 0
-95 724 0
-95 23 0
96 -95 -725 0
-96 95 0
-96 725 0
97 -726 -94 0
-97 726 0
-97 94 0
98 -721 -1 0
-98 721 0
-98 1 0
99 -98 -34 0
-99 98 0
-99 34 0
100 -727 -97 0
-100 727 0
-100 97 0
101 -33 -728 0
-101 33 0
-101 728 0
102 -101 -729 0
-102 101 0
-102 729 0
103 -730 -100 0
-103 730 0
-103 100 0
104 -731 -724 0
-104 731 0
-104 724 0
105 -104 -36 0
-105 104 0
-105 36 0
106 -732 -103 0
-106 732 0
-106 103 0
107 -38 -37 0
-107 38 0
-107 37 0
108 -107 -20 0
-108 107 0
-108 20 0
109 -733 -106 0
-109 733 0
-109 106 0
110 -39 -728 0
-110 39 0
-110 728 0
111 -110 -33 0
-111 110 0
-111 33 0
112 -734 -109 0
-112 734 0
-112 109 0
113 -709 -21 0
-113 709 0
-113 21 0
114 -113 -735 0
-114 113 0
-114 735 0
115 -736 -112 0
-115 736 0
-115 112 0
116 -737 -716 0
-116 737 0
-116 716 0
117 -116 -738 0
-117 116 0
-117 738 0
118 -739 -115 0
-118 739 0
-118 115 0
119 -724 -8 0
-119 724 0
-119 8 0
120 -119 -11 0
-120 119 0
-120 11 0
121 -740 -118 0
-121 740 0
-121 118 0
122 -26 -4 0
-122 26 0
-122 4 0
123 -122 -741 0
-123 122 0
-123 741 0
124 -742 -121 0
-124 742 0
-124 121 0
125 -42 -41 0
-125 42 0
-125 41 0
126 -125 -36 0
-126 125 0
-126 36 0
127 -743 -124 0
-127 743 0
-127 124 0
128 -728 -744 0
-128 728 0
-128 744 0
129 -128 -721 0
-129 128 0
-129 721 0
130 -745 -127 0
-130 745 0
-130 127 0
131 -43 -746 0
-131 43 0
-131 746 0
132 -131 -706 0
-132 131 0
-132 706 0
133 -747 -130 0
-133 747 0
-133 130 0
134 -718 -27 0
-134 718 0
-134 27 0
135 -134 -18 0
-135 134 0
-135 18 0
136 -748 -133 0
-136 748 0
-136 133 0
137 -714 -749 0
-137 714 0
-137 749 0
138 -137 -724 0
-138 137 0
-138 724 0
139 -750 -136 0
-139 750 0
-139 136 0
140 -44 -1 0
-140 44 0
-140 1 0
141 -140 -40 0
-141 140 0
-141 40 0
142 -751 -139 0
-142 751 0
-142 139 0
143 -128 -725 0
-143 128 0
-143 725 0
144 -752 -142 0
-144 752 0
-144 142 0
145 -32 -753 0
-145 32 0
-145 753 0
146 -145 -700 0
-146 145 0
-146 700 0
147 -754 -144 0
-147 754 0
-147 144 0
148 -41 -9 0
-148 41 0
-148 9 0
149 -148 -43 0
-149 148 0
-149 43 0
150 -755 -147 0
-150 755 0
-150 147 0
151 -756 -753 0
-151 756 0
-151 753 0
152 -151 -757 0
-152 151 0
-152 757 0
153 -758 -150 0
-153 758 0
-153 150 0
154 -41 -718 0
-154 41 0
-154 718 0
155 -154 -759 0
-155 154 0
-155 759 0
156 -760 -153 0
-156 760 0
-156 153 0
157 -39 -749 0
-157 39 0
-157 749 0
158 -157 -741 0
-158 157 0
-158 741 0
159 -761 -156 0
-159 761 0
-159 156 0
160 -45 -2 0
-160 45 0
-160 2 0
161 -160 -738 0
-161 160 0
-161 738 0
162 -762 -159 0
-162 762 0
-162 159 0
163 -46 -30 0
-163 46 0
-163 30 0
164 -163 -710 0
-164 163 0
-164 710 0
165 -763 -162 0
-165 763 0
-165 162 0
166 -718 -764 0
-166 718 0
-166 764 0
167 -166 -44 0
-167 166 0
-167 44 0
168 -765 -165 0
-168 765 0
-168 165 0
169 -731 -10 0
-169 731 0
-169 10 0
170 -169 -724 0
-170 169 0
-170 724 0
171 -766 -168 0
-171 766 0
-171 168 0
172 -26 -764 0
-172 26 0
-172 764 0
173 -172 -13 0
-173 172 0
-173 13 0
174 -767 -171 0
-174 767 0
-174 171 0
175 -22 -746 0
-175 22 0
-175 746 0
176 -175 -768 0
-176 175 0
-176 768 0
177 -769 -174 0
-177 769 0
-177 174 0
178 -718 -756 0
-178 718 0
-178 756 0
179 -178 -30 0
-179 178 0
-179 30 0
180 -770 -177 0
-180 770 0
-180 177 0
181 -771 -749 0
-181 771 0
-181 749 0
182 -181 -738 0
-182 181 0
-182 738 0
183 -772 -180 0
-183 772 0
-183 180 0
184 -7 -3 0
-184 7 0
-184 3 0
185 -184 -759 0
-185 184 0
-185 759 0
186 -773 -183 0
-186 773 0
-186 183 0
187 -746 -12 0
-187 746 0
-187 12 0
188 -187 -43 0
-188 187 0
-188 43 0
189 -774 -186 0
-189 774 0
-189 186 0
190 -28 -22 0
-190 28 0
-190 22 0
191 -190 -46 0
-191 190 0
-191 46 0
192 -775 -189 0
-192 775 0
-192 189 0
193 -776 -5 0
-193 776 0
-193 5 0
194 -193 -707 0
-194 193 0
-194 707 0
195 -777 -192 0
-195 777 0
-195 192 0
196 -48 -17 0
-196 48 0
-196 17 0
197 -196 -29 0
-197 196 0
-197 29 0
198 -778 -195 0
-198 778 0
-198 195 0
199 -27 -15 0
-199 27 0
-199 15 0
200 -199 -779 0
-200 199 0
-200 779 0
201 -780 -198 0
-201 780 0
-201 198 0
202 -44 -714 0
-202 44 0
-202 714 0
203 -202 -21 0
-203 202 0
-203 21 0
204 -781 -201 0
-204 781 0
-204 201 0
205 -703 -15 0
-205 703 0
-205 15 0
206 -205 -36 0
-206 205 0
-206 36 0
207 -782 -204 0
-207 782 0
-207 204 0
208 -771 -756 0
-208 771 0
-208 756 0
209 -208 -8 0
-209 208 0
-209 8 0
210 -783 -207 0
-210 783 0
-210 207 0
211 -12 -757 0
-211 12 0
-211 757 0
212 -211 -34 0
-212 211 0
-212 34 0
213 -784 -210 0
-213 784 0
-213 210 0
214 -776 -9 0
-214 776 0
-214 9 0
215 -214 -719 0
-215 214 0
-215 719 0
216 -785 -213 0
-216 785 0
-216 213 0
217 -23 -17 0
-217 23 0
-217 17 0
218 -217 -786 0
-218 217 0
-218 786 0
219 -787 -216 0
-219 787 0
-219 216 0
220 -27 -2 0
-220 27 0
-220 2 0
221 -220 -14 0
-221 220 0
-221 14 0
222 -788 -219 0
-222 788 0
-222 219 0
223 -709 -11 0
-223 709 0
-223 11 0
224 -223 -700 0
-224 223 0
-224 700 0
225 -789 -222 0
-225 789 0
-225 222 0
226 -753 -3 0
-226 753 0
-226 3 0
227 -226 -40 0
-227 226 0
-227 40 0
228 -790 -225 0
-228 790 0
-228 225 0
229 -791 -1 0
-229 791 0
-229 1 0
230 -229 -724 0
-230 229 0
-230 724 0
231 -792 -228 0
-231 792 0
-231 228 0
232 -15 -714 0
-232 15 0
-232 714 0
233 -232 -768 0
-233 232 0
-233 768 0
234 -793 -231 0
-234 793 0
-234 231 0
235 -794 -795 0
-235 794 0
-235 795 0
236 -235 -737 0
-236 235 0
-236 737 0
237 -796 -234 0
-237 796 0
-237 234 0
238 -31 -1 0
-238 31 0
-238 1 0
239 -238 -3 0
-239 238 0
-239 3 0
240 -797 -237 0
-240 797 0
-240 237 0
241 -798 -728 0
-241 798 0
-241 728 0
242 -241 -795 0
-242 241 0
-242 795 0
243 -799 -240 0
-243 799 0
-243 240 0
244 -791 -29 0
-244 791 0
-244 29 0
245 -244 -786 0
-245 244 0
-245 786 0
246 -800 -243 0
-246 800 0
-246 243 0
247 -48 -13 0
-247 48 0
-247 13 0
248 -247 -36 0
-248 247 0
-248 36 0
249 -801 -246 0
-249 801 0
-249 246 0
250 -39 -22 0
-250 39 0
-250 22 0
251 -250 -33 0
-251 250 0
-251 33 0
252 -802 -249 0
-252 802 0
-252 249 0
253 -707 -714 0
-253 707 0
-253 714 0
254 -253 -49 0
-254 253 0
-254 49 0
255 -803 -252 0
-255 803 0
-255 252 0
256 -804 -29 0
-256 804 0
-256 29 0
257 -256 -704 0
-257 256 0
-257 704 0
258 -805 -255 0
-258 805 0
-258 255 0
259 -8 -5 0
-259 8 0
-259 5 0
260 -259 -19 0
-260 259 0
-260 19 0
261 -806 -258 0
-261 806 0
-261 258 0
262 -807 -15 0
-262 807 0
-262 15 0
263 -262 -21 0
-263 262 0
-263 21 0
264 -808 -261 0
-264 808 0
-264 261 0
265 -39 -34 0
-265 39 0
-265 34 0
266 -265 -704 0
-266 265 0
-266 704 0
267 -809 -264 0
-267 809 0
-267 264 0
268 -41 -810 0
-268 41 0
-268 810 0
269 -268 -786 0
-269 268 0
-269 786 0
270 -811 -267 0
-270 811 0
-270 267 0
271 -46 -694 0
-271 46 0
-271 694 0
272 -271 -779 0
-272 271 0
-272 779 0
273 -812 -270 0
-273 812 0
-273 270 0
274 -47 -724 0
-274 47 0
-274 724 0
275 -274 -738 0
-275 274 0
-275 738 0
276 -813 -273 0
-276 813 0
-276 273 0
277 -41 -37 0
-277 41 0
-277 37 0
278 -277 -731 0
-278 277 0
-278 731 0
279 -814 -276 0
-279 814 0
-279 276 0
280 -44 -721 0
-280 44 0
-280 721 0
281 -280 -11 0
-281 280 0
-281 11 0
282 -815 -279 0
-282 815 0
-282 279 0
283 -746 -698 0
-283 746 0
-283 698 0
284 -283 -48 0
-284 283 0
-284 48 0
285 -816 -282 0
-285 816 0
-285 282 0
286 -804 -10 0
-286 804 0
-286 10 0
287 -286 -31 0
-287 286 0
-287 31 0
288 -817 -285 0
-288 817 0
-288 285 0
289 -716 -753 0
-289 716 0
-289 753 0
290 -289 -710 0
-290 289 0
-290 710 0
291 -818 -288 0
-291 818 0
-291 288 0
292 -48 -798 0
-292 48 0
-292 798 0
293 -292 -21 0
-293 292 0
-293 21 0
294 -819 -291 0
-294 819 0
-294 291 0
295 -48 -2 0
-295 48 0
-295 2 0
296 -295 -42 0
-296 295 0
-296 42 0
297 -820 -294 0
-297 820 0
-297 294 0
298 -28 -27 0
-298 28 0
-298 27 0
299 -298 -14 0
-299 298 0
-299 14 0
300 -821 -297 0
-300 821 0
-300 297 0
301 -810 -9 0
-301 810 0
-301 9 0
302 -301 -706 0
-302 301 0
-302 706 0
303 -822 -300 0
-303 822 0
-303 300 0
304 -753 -694 0
-304 753 0
-304 694 0
305 -304 -45 0
-305 304 0
-305 45 0
306 -823 -303 0
-306 823 0
-306 303 0
307 -47 -749 0
-307 47 0
-307 749 0
308 -307 -13 0
-308 307 0
-308 13 0
309 -824 -306 0
-309 824 0
-309 306 0
310 -17 -749 0
-310 17 0
-310 749 0
311 -310 -25 0
-311 310 0
-311 25 0
312 -825 -309 0
-312 825 0
-312 309 0
313 -7 -5 0
-313 7 0
-313 5 0
314 -313 -804 0
-314 313 0
-314 804 0
315 -826 -312 0
-315 826 0
-315 312 0
316 -719 -741 0
-316 719 0
-316 741 0
317 -316 -36 0
-317 316 0
-317 36 0
318 -827 -315 0
-318 827 0
-318 315 0
319 -26 -8 0
-319 26 0
-319 8 0
320 -319 -716 0
-320 319 0
-320 716 0
321 -828 -318 0
-321 828 0
-321 318 0
322 -779 -13 0
-322 779 0
-322 13 0
323 -322 -3 0
-323 322 0
-323 3 0
324 -829 -321 0
-324 829 0
-324 321 0
325 -47 -37 0
-325 47 0
-325 37 0
326 -325 -6 0
-326 325 0
-326 6 0
327 -830 -324 0
-327 830 0
-327 324 0
328 -27 -707 0
-328 27 0
-328 707 0
329 -328 -779 0
-329 328 0
-329 779 0
330 -831 -327 0
-330 831 0
-330 327 0
331 -38 -27 0
-331 38 0
-331 27 0
332 -331 -40 0
-332 331 0
-332 40 0
333 -832 -330 0
-333 832 0
-333 330 0
334 -8 -7 0
-334 8 0
-334 7 0
335 -334 -707 0
-335 334 0
-335 707 0
336 -833 -333 0
-336 833 0
-336 333 0
337 -721 -714 0
-337 721 0
-337 714 0
338 -337 -798 0
-338 337 0
-338 798 0
339 -834 -336 0
-339 834 0
-339 336 0
340 -835 -17 0
-340 835 0
-340 17 0
341 -340 -36 0
-341 340 0
-341 36 0
342 -836 -339 0
-342 836 0
-342 339 0
343 -50 -694 0
-343 50 0
-343 694 0
344 -343 -39 0
-344 343 0
-344 39 0
345 -837 -342 0
-345 837 0
-345 342 0
346 -838 -12 0
-346 838 0
-346 12 0
347 -346 -835 0
-347 346 0
-347 835 0
348 -839 -345 0
-348 839 0
-348 345 0
349 -718 -17 0
-349 718 0
-349 17 0
350 -349 -710 0
-350 349 0
-350 710 0
351 -840 -348 0
-351 840 0
-351 348 0
352 -37 -744 0
-352 37 0
-352 744 0
353 -352 -738 0
-353 352 0
-353 738 0
354 -841 -351 0
-354 841 0
-354 351 0
355 -26 -5 0
-355 26 0
-355 5 0
356 -355 -49 0
-356 355 0
-356 49 0
357 -842 -354 0
-357 842 0
-357 354 0
358 -137 -794 0
-358 137 0
-358 794 0
359 -843 -357 0
-359 843 0
-359 357 0
360 -786 -6 0
-360 786 0
-360 6 0
361 -360 -34 0
-361 360 0
-361 34 0
362 -844 -359 0
-362 844 0
-362 359 0
363 -764 -5 0
-363 764 0
-363 5 0
364 -363 -706 0
-364 363 0
-364 706 0
365 -845 -362 0
-365 845 0
-365 362 0
366 -794 -33 0
-366 794 0
-366 33 0
367 -366 -32 0
-367 366 0
-367 32 0
368 -846 -365 0
-368 846 0
-368 365 0
369 -794 -15 0
-369 794 0
-369 15 0
370 -369 -30 0
-370 369 0
-370 30 0
371 -847 -368 0
-371 847 0
-371 368 0
372 -51 -44 0
-372 51 0
-372 44 0
373 -848 -371 0
-373 848 0
-373 371 0
374 -849 -728 0
-374 849 0
-374 728 0
375 -374 -42 0
-375 374 0
-375 42 0
376 -850 -373 0
-376 850 0
-376 373 0
377 -50 -23 0
-377 50 0
-377 23 0
378 -377 -46 0
-378 377 0
-378 46 0
379 -851 -376 0
-379 851 0
-379 376 0
380 -838 -718 0
-380 838 0
-380 718 0
381 -380 -735 0
-381 380 0
-381 735 0
382 -852 -379 0
-382 852 0
-382 379 0
383 -47 -12 0
-383 47 0
-383 12 0
384 -383 -29 0
-384 383 0
-384 29 0
385 -853 -382 0
-385 853 0
-385 382 0
386 -12 -9 0
-386 12 0
-386 9 0
387 -386 -8 0
-387 386 0
-387 8 0
388 -854 -385 0
-388 854 0
-388 385 0
389 -855 -19 0
-389 855 0
-389 19 0
390 -389 -737 0
-390 389 0
-390 737 0
391 -856 -388 0
-391 856 0
-391 388 0
392 -795 -838 0
-392 795 0
-392 838 0
393 -392 -719 0
-393 392 0
-393 719 0
394 -857 -391 0
-394 857 0
-394 391 0
395 -47 -753 0
-395 47 0
-395 753 0
396 -395 -759 0
-396 395 0
-396 759 0
397 -858 -394 0
-397 858 0
-397 394 0
398 -795 -694 0
-398 795 0
-398 694 0
399 -398 -34 0
-399 398 0
-399 34 0
400 -859 -397 0
-400 859 0
-400 397 0
401 -794 -731 0
-401 794 0
-401 731 0
402 -401 -11 0
-402 401 0
-402 11 0
403 -860 -400 0
-403 860 0
-403 400 0
404 -724 -3 0
-404 724 0
-404 3 0
405 -404 -719 0
-405 404 0
-405 719 0
406 -861 -403 0
-406 861 0
-406 403 0
407 -39 -29 0
-407 39 0
-407 29 0
408 -407 -737 0
-408 407 0
-408 737 0
409 -862 -406 0
-409 862 0
-409 406 0
410 -771 -849 0
-410 771 0
-410 849 0
411 -410 -863 0
-411 410 0
-411 863 0
412 -864 -409 0
-412 864 0
-412 409 0
413 -47 -768 0
-413 47 0
-413 768 0
414 -413 -804 0
-414 413 0
-414 804 0
415 -865 -412 0
-415 865 0
-415 412 0
416 -39 -18 0
-416 39 0
-416 18 0
417 -416 -741 0
-417 416 0
-417 741 0
418 -866 -415 0
-418 866 0
-418 415 0
419 -35 -749 0
-419 35 0
-419 749 0
420 -419 -741 0
-420 419 0
-420 741 0
421 -867 -418 0
-421 867 0
-421 418 0
422 -756 -5 0
-422 756 0
-422 5 0
423 -422 -25 0
-423 422 0
-423 25 0
424 -868 -421 0
-424 868 0
-424 421 0
425 -28 -713 0
-425 28 0
-425 713 0
426 -425 -29 0
-426 425 0
-426 29 0
427 -869 -424 0
-427 869 0
-427 424 0
428 -12 -6 0
-428 12 0
-428 6 0
429 -428 -710 0
-429 428 0
-429 710 0
430 -870 -427 0
-430 870 0
-430 427 0
431 -46 -29 0
-431 46 0
-431 29 0
432 -431 -835 0
-432 431 0
-432 835 0
433 -871 -430 0
-433 871 0
-433 430 0
434 -721 -17 0
-434 721 0
-434 17 0
435 -434 -42 0
-435 434 0
-435 42 0
436 -872 -433 0
-436 872 0
-436 433 0
437 -737 -31 0
-437 737 0
-437 31 0
438 -437 -738 0
-438 437 0
-438 738 0
439 -873 -436 0
-439 873 0
-439 436 0
440 -807 -716 0
-440 807 0
-440 716 0
441 -440 -704 0
-441 440 0
-441 704 0
442 -874 -439 0
-442 874 0
-442 439 0
443 -10 -694 0
-443 10 0
-443 694 0
444 -443 -737 0
-444 443 0
-444 737 0
445 -875 -442 0
-445 875 0
-445 442 0
446 -17 -741 0
-446 17 0
-446 741 0
447 -446 -710 0
-447 446 0
-447 710 0
448 -876 -445 0
-448 876 0
-448 445 0
449 -794 -741 0
-449 794 0
-449 741 0
450 -449 -24 0
-450 449 0
-450 24 0
451 -877 -448 0
-451 877 0
-451 448 0
452 -703 -746 0
-452 703 0
-452 746 0
453 -452 -863 0
-453 452 0
-453 863 0
454 -878 -451 0
-454 878 0
-454 451 0
455 -756 -7 0
-455 756 0
-455 7 0
456 -455 -700 0
-456 455 0
-456 700 0
457 -879 -454 0
-457 879 0
-457 454 0
458 -27 -710 0
-458 27 0
-458 710 0
459 -458 -725 0
-459 458 0
-459 725 0
460 -880 -457 0
-460 880 0
-460 457 0
461 -425 -863 0
-461 425 0
-461 863 0
462 -881 -460 0
-462 881 0
-462 460 0
463 -45 -728 0
-463 45 0
-463 728 0
464 -463 -710 0
-464 463 0
-464 710 0
465 -882 -462 0
-465 882 0
-465 462 0
466 -28 -753 0
-466 28 0
-466 753 0
467 -466 -710 0
-467 466 0
-467 710 0
468 -883 -465 0
-468 883 0
-468 465 0
469 -807 -703 0
-469 807 0
-469 703 0
470 -469 -795 0
-470 469 0
-470 795 0
471 -884 -468 0
-471 884 0
-471 468 0
472 -835 -756 0
-472 835 0
-472 756 0
473 -472 -49 0
-473 472 0
-473 49 0
474 -885 -471 0
-474 885 0
-474 471 0
475 -776 -729 0
-475 776 0
-475 729 0
476 -475 -704 0
-476 475 0
-476 704 0
477 -886 -474 0
-477 886 0
-477 474 0
478 -26 -19 0
-478 26 0
-478 19 0
479 -478 -34 0
-479 478 0
-479 34 0
480 -887 -477 0
-480 887 0
-480 477 0
481 -32 -10 0
-481 32 0
-481 10 0
482 -481 -20 0
-482 481 0
-482 20 0
483 -888 -480 0
-483 888 0
-483 480 0
484 -849 -9 0
-484 849 0
-484 9 0
485 -484 -39 0
-485 484 0
-485 39 0
486 -889 -483 0
-486 889 0
-486 483 0
487 -33 -838 0
-487 33 0
-487 838 0
488 -487 -20 0
-488 487 0
-488 20 0
489 -890 -486 0
-489 890 0
-489 486 0
490 -45 -28 0
-490 45 0
-490 28 0
491 -490 -18 0
-491 490 0
-491 18 0
492 -891 -489 0
-492 891 0
-492 489 0
493 -718 -716 0
-493 718 0
-493 716 0
494 -493 -706 0
-494 493 0
-494 706 0
495 -892 -492 0
-495 892 0
-495 492 0
496 -835 -849 0
-496 835 0
-496 849 0
497 -496 -20 0
-497 496 0
-497 20 0
498 -893 -495 0
-498 893 0
-498 495 0
499 -12 -10 0
-499 12 0
-499 10 0
500 -499 -38 0
-500 499 0
-500 38 0
501 -894 -498 0
-501 894 0
-501 498 0
502 -786 -753 0
-502 786 0
-502 753 0
503 -502 -759 0
-503 502 0
-503 759 0
504 -895 -501 0
-504 895 0
-504 501 0
505 -724 -768 0
-505 724 0
-505 768 0
506 -505 -36 0
-506 505 0
-506 36 0
507 -896 -504 0
-507 896 0
-507 504 0
508 -35 -738 0
-508 35 0
-508 738 0
509 -508 -725 0
-509 508 0
-509 725 0
510 -897 -507 0
-510 897 0
-510 507 0
511 -40 -849 0
-511 40 0
-511 849 0
512 -511 -725 0
-512 511 0
-512 725 0
513 -898 -510 0
-513 898 0
-513 510 0
514 -768 -1 0
-514 768 0
-514 1 0
515 -514 -737 0
-515 514 0
-515 737 0
516 -899 -513 0
-516 899 0
-516 513 0
517 -23 -764 0
-517 23 0
-517 764 0
518 -517 -31 0
-518 517 0
-518 31 0
519 -900 -516 0
-519 900 0
-519 516 0
520 -40 -753 0
-520 40 0
-520 753 0
521 -520 -725 0
-521 520 0
-521 725 0
522 -901 -519 0
-522 901 0
-522 519 0
523 -798 -746 0
-523 798 0
-523 746 0
524 -523 -725 0
-524 523 0
-524 725 0
525 -902 -522 0
-525 902 0
-525 522 0
526 -749 -744 0
-526 749 0
-526 744 0
527 -526 -42 0
-527 526 0
-527 42 0
528 -903 -525 0
-528 903 0
-528 525 0
529 -56 -794 0
-529 56 0
-529 794 0
530 -904 -528 0
-530 904 0
-530 528 0
531 -779 -34 0
-531 779 0
-531 34 0
532 -531 -725 0
-532 531 0
-532 725 0
533 -905 -530 0
-533 905 0
-533 530 0
534 -22 -703 0
-534 22 0
-534 703 0
535 -534 -32 0
-535 534 0
-535 32 0
536 -906 -533 0
-536 906 0
-536 533 0
537 -27 -703 0
-537 27 0
-537 703 0
538 -537 -786 0
-538 537 0
-538 786 0
539 -907 -536 0
-539 907 0
-539 536 0
540 -807 -698 0
-540 807 0
-540 698 0
541 -540 -838 0
-541 540 0
-541 838 0
542 -908 -539 0
-542 908 0
-542 539 0
543 -791 -8 0
-543 791 0
-543 8 0
544 -543 -704 0
-544 543 0
-544 704 0
545 -909 -542 0
-545 909 0
-545 542 0
546 -795 -738 0
-546 795 0
-546 738 0
547 -546 -14 0
-547 546 0
-547 14 0
548 -910 -545 0
-548 910 0
-548 545 0
549 -50 -776 0
-549 50 0
-549 776 0
550 -549 -20 0
-550 549 0
-550 20 0
551 -911 -548 0
-551 911 0
-551 548 0
552 -22 -17 0
-552 22 0
-552 17 0
553 -552 -20 0
-553 552 0
-553 20 0
554 -912 -551 0
-554 912 0
-554 551 0
555 -704 -9 0
-555 704 0
-555 9 0
556 -555 -706 0
-556 555 0
-556 706 0
557 -913 -554 0
-557 913 0
-557 554 0
558 -768 -694 0
-558 768 0
-558 694 0
559 -558 -45 0
-559 558 0
-559 45 0
560 -914 -557 0
-560 914 0
-560 557 0
561 -764 -768 0
-561 764 0
-561 768 0
562 -561 -786 0
-562 561 0
-562 786 0
563 -915 -560 0
-563 915 0
-563 560 0
564 -45 -32 0
-564 45 0
-564 32 0
565 -564 -40 0
-565 564 0
-565 40 0
566 -916 -563 0
-566 916 0
-566 563 0
567 -798 -5 0
-567 798 0
-567 5 0
568 -567 -795 0
-568 567 0
-568 795 0
569 -917 -566 0
-569 917 0
-569 566 0
570 -12 -744 0
-570 12 0
-570 744 0
571 -570 -7 0
-571 570 0
-571 7 0
572 -918 -569 0
-572 918 0
-572 569 0
573 -48 -703 0
-573 48 0
-573 703 0
574 -573 -46 0
-574 573 0
-574 46 0
575 -919 -572 0
-575 919 0
-575 572 0
576 -48 -746 0
-576 48 0
-576 746 0
577 -576 -3 0
-577 576 0
-577 3 0
578 -920 -575 0
-578 920 0
-578 575 0
579 -47 -9 0
-579 47 0
-579 9 0
580 -579 -838 0
-580 579 0
-580 838 0
581 -921 -578 0
-581 921 0
-581 578 0
582 -49 -718 0
-582 49 0
-582 718 0
583 -582 -757 0
-583 582 0
-583 757 0
584 -922 -581 0
-584 922 0
-584 581 0
585 -794 -709 0
-585 794 0
-585 709 0
586 -585 -807 0
-586 585 0
-586 807 0
587 -923 -584 0
-587 923 0
-587 584 0
588 -46 -2 0
-588 46 0
-588 2 0
589 -588 -738 0
-589 588 0
-589 738 0
590 -924 -587 0
-590 924 0
-590 587 0
591 -37 -757 0
-591 37 0
-591 757 0
592 -591 -738 0
-592 591 0
-592 738 0
593 -925 -590 0
-593 925 0
-593 590 0
594 -706 -10 0
-594 706 0
-594 10 0
595 -594 -36 0
-595 594 0
-595 36 0
596 -926 -593 0
-596 926 0
-596 593 0
597 -927 -768 0
-597 927 0
-597 768 0
598 -597 -795 0
-598 597 0
-598 795 0
599 -928 -596 0
-599 928 0
-599 596 0
600 -810 -707 0
-600 810 0
-600 707 0
601 -600 -45 0
-601 600 0
-601 45 0
602 -929 -599 0
-602 929 0
-602 599 0
603 -731 -17 0
-603 731 0
-603 17 0
604 -603 -704 0
-604 603 0
-604 704 0
605 -930 -602 0
-605 930 0
-605 602 0
606 -927 -714 0
-606 927 0
-606 714 0
607 -606 -729 0
-607 606 0
-607 729 0
608 -931 -605 0
-608 931 0
-608 605 0
609 -771 -1 0
-609 771 0
-609 1 0
610 -609 -27 0
-610 609 0
-610 27 0
611 -932 -608 0
-611 932 0
-611 608 0
612 -706 -18 0
-612 706 0
-612 18 0
613 -612 -710 0
-613 612 0
-613 710 0
614 -933 -611 0
-614 933 0
-614 611 0
615 -855 -1 0
-615 855 0
-615 1 0
616 -615 -42 0
-616 615 0
-616 42 0
617 -934 -614 0
-617 934 0
-617 614 0
618 -22 -21 0
-618 22 0
-618 21 0
619 -618 -735 0
-619 618 0
-619 735 0
620 -935 -617 0
-620 935 0
-620 617 0
621 -753 -10 0
-621 753 0
-621 10 0
622 -621 -2 0
-622 621 0
-622 2 0
623 -936 -620 0
-623 936 0
-623 620 0
624 -716 -703 0
-624 716 0
-624 703 0
625 -624 -34 0
-625 624 0
-625 34 0
626 -937 -623 0
-626 937 0
-626 623 0
627 -175 -39 0
-627 175 0
-627 39 0
628 -938 -626 0
-628 938 0
-628 626 0
629 -17 -7 0
-629 17 0
-629 7 0
630 -629 -40 0
-630 629 0
-630 40 0
631 -939 -628 0
-631 939 0
-631 628 0
632 -31 -19 0
-632 31 0
-632 19 0
633 -632 -719 0
-633 632 0
-633 719 0
634 -940 -631 0
-634 940 0
-634 631 0
635 -29 -9 0
-635 29 0
-635 9 0
636 -635 -757 0
-636 635 0
-636 757 0
637 -941 -634 0
-637 941 0
-637 634 0
638 -807 -31 0
-638 807 0
-638 31 0
639 -638 -27 0
-639 638 0
-639 27 0
640 -942 -637 0
-640 942 0
-640 637 0
641 -35 -716 0
-641 35 0
-641 716 0
642 -641 -13 0
-642 641 0
-642 13 0
643 -943 -640 0
-643 943 0
-643 640 0
644 -148 -804 0
-644 148 0
-644 804 0
645 -944 -643 0
-645 944 0
-645 643 0
646 -37 -713 0
-646 37 0
-646 713 0
647 -646 -835 0
-647 646 0
-647 835 0
648 -945 -645 0
-648 945 0
-648 645 0
649 -41 -738 0
-649 41 0
-649 738 0
650 -649 -11 0
-650 649 0
-650 11 0
651 -946 -648 0
-651 946 0
-651 648 0
652 -4 -768 0
-652 4 0
-652 768 0
653 -652 -700 0
-653 652 0
-653 700 0
654 -947 -651 0
-654 947 0
-654 651 0
655 -42 -28 0
-655 42 0
-655 28 0
656 -655 -11 0
-656 655 0
-656 11 0
657 -948 -654 0
-657 948 0
-657 654 0
658 -43 -709 0
-658 43 0
-658 709 0
659 -658 -13 0
-659 658 0
-659 13 0
660 -949 -657 0
-660 949 0
-660 657 0
661 -753 -11 0
-661 753 0
-661 11 0
662 -661 -725 0
-662 661 0
-662 725 0
663 -950 -660 0
-663 950 0
-663 660 0
664 -698 -694 0
-664 698 0
-664 694 0
665 -664 -13 0
-665 664 0
-665 13 0
666 -951 -663 0
-666 951 0
-666 663 0
667 -15 -5 0
-667 15 0
-667 5 0
668 -667 -46 0
-668 667 0
-668 46 0
669 -952 -666 0
-669 952 0
-669 666 0
670 -718 -9 0
-670 718 0
-670 9 0
671 -670 -710 0
-671 670 0
-671 710 0
672 -953 -669 0
-672 953 0
-672 669 0
673 -27 -13 0
-673 27 0
-673 13 0
674 -673 -737 0
-674 673 0
-674 737 0
675 -954 -672 0
-675 954 0
-675 672 0
676 -39 -32 0
-676 39 0
-676 32 0
677 -676 -18 0
-677 676 0
-677 18 0
678 -955 -675 0
-678 955 0
-678 675 0
679 -807 -744 0
-679 807 0
-679 744 0
680 -679 -725 0
-680 679 0
-680 725 0
681 -956 -678 0
-681 956 0
-681 678 0
682 -15 -1 0
-682 15 0
-682 1 0
683 -682 -776 0
-683 682 0
-683 776 0
684 -957 -681 0
-684 957 0
-684 681 0
685 -26 -9 0
-685 26 0
-685 9 0
686 -685 -725 0
-686 685 0
-686 725 0
687 -958 -684 0
-687 958 0
-687 684 0
688 -791 -756 0
-688 791 0
-688 756 0
689 -688 -40 0
-689 688 0
-689 40 0
690 -959 -687 0
-690 959 0
-690 687 0
691 -25 -710 0
-691 25 0
-691 710 0
692 -691 -36 0
-692 691 0
-692 36 0
693 -960 -690 0
-693 960 0
-693 690 0
-694 -1 0
694 1 0
-695 -54 0
695 54 0
-696 -52 0
696 52 0
-697 -57 0
697 57 0
-698 -10 0
698 10 0
-699 -60 0
699 60 0
-700 -14 0
700 14 0
-701 -63 0
701 63 0
-702 -66 0
702 66 0
-703 -17 0
703 17 0
-704 -18 0
704 18 0
-705 -69 0
705 69 0
-706 -20 0
706 20 0
-707 -19 0
707 19 0
-708 -72 0
708 72 0
-709 -23 0
709 23 0
-710 -24 0
710 24 0
-711 -75 0
711 75 0
-712 -78 0
712 78 0
-713 -26 0
713 26 0
-714 -7 0
714 7 0
-715 -81 0
715 81 0
-716 -27 0
716 27 0
-717 -84 0
717 84 0
-718 -29 0
718 29 0
-719 -30 0
719 30 0
-720 -87 0
720 87 0
-721 -32 0
721 32 0
-722 -90 0
722 90 0
-723 -93 0
723 93 0
-724 -33 0
724 33 0
-725 -25 0
725 25 0
-726 -96 0
726 96 0
-727 -99 0
727 99 0
-728 -8 0
728 8 0
-729 -6 0
729 6 0
-730 -102 0
730 102 0
-731 -35 0
731 35 0
-732 -105 0
732 105 0
-733 -108 0
733 108 0
-734 -111 0
734 111 0
-735 -36 0
735 36 0
-736 -114 0
736 114 0
-737 -40 0
737 40 0
-738 -34 0
738 34 0
-739 -117 0
739 117 0
-740 -120 0
740 120 0
-741 -11 0
741 11 0
-742 -123 0
742 123 0
-743 -126 0
743 126 0
-744 -4 0
744 4 0
-745 -129 0
745 129 0
-746 -15 0
746 15 0
-747 -132 0
747 132 0
-748 -135 0
748 135 0
-749 -5 0
749 5 0
-750 -138 0
750 138 0
-751 -141 0
751 141 0
-752 -143 0
752 143 0
-753 -12 0
753 12 0
-754 -146 0
754 146 0
-755 -149 0
755 149 0
-756 -22 0
756 22 0
-757 -3 0
757 3 0
-758 -152 0
758 152 0
-759 -21 0
759 21 0
-760 -155 0
760 155 0
-761 -158 0
761 158 0
-762 -161 0
762 161 0
-763 -164 0
763 164 0
-764 -9 0
764 9 0
-765 -167 0
765 167 0
-766 -170 0
766 170 0
-767 -173 0
767 173 0
-768 -2 0
768 2 0
-769 -176 0
769 176 0
-770 -179 0
770 179 0
-771 -47 0
771 47 0
-772 -182 0
772 182 0
-773 -185 0
773 185 0
-774 -188 0
774 188 0
-775 -191 0
775 191 0
-776 -48 0
776 48 0
-777 -194 0
777 194 0
-778 -197 0
778 197 0
-779 -49 0
779 49 0
-780 -200 0
780 200 0
-781 -203 0
781 203 0
-782 -206 0
782 206 0
-783 -209 0
783 209 0
-784 -212 0
784 212 0
-785 -215 0
785 215 0
-786 -16 0
786 16 0
-787 -218 0
787 218 0
-788 -221 0
788 221 0
-789 -224 0
789 224 0
-790 -227 0
790 227 0
-791 -50 0
791 50 0
-792 -230 0
792 230 0
-793 -233 0
793 233 0
-794 -43 0
794 43 0
-795 -38 0
795 38 0
-796 -236 0
796 236 0
-797 -239 0
797 239 0
-798 -42 0
798 42 0
-799 -242 0
799 242 0
-800 -245 0
800 245 0
-801 -248 0
801 248 0
-802 -251 0
802 251 0
-803 -254 0
803 254 0
-804 -46 0
804 46 0
-805 -257 0
805 257 0
-806 -260 0
806 260 0
-807 -39 0
807 39 0
-808 -263 0
808 263 0
-809 -266 0
809 266 0
-810 -37 0
810 37 0
-811 -269 0
811 269 0
-812 -272 0
812 272 0
-813 -275 0
813 275 0
-814 -278 0
814 278 0
-815 -281 0
815 281 0
-816 -284 0
816 284 0
-817 -287 0
817 287 0
-818 -290 0
818 290 0
-819 -293 0
819 293 0
-820 -296 0
820 296 0
-821 -299 0
821 299 0
-822 -302 0
822 302 0
-823 -305 0
823 305 0
-824 -308 0
824 308 0
-825 -311 0
825 311 0
-826 -314 0
826 314 0
-827 -317 0
827 317 0
-828 -320 0
828 320 0
-829 -323 0
829 323 0
-830 -326 0
830 326 0
-831 -329 0
831 329 0
-832 -332 0
832 332 0
-833 -335 0
833 335 0
-834 -338 0
834 338 0
-835 -45 0
835 45 0
-836 -341 0
836 341 0
-837 -344 0
837 344 0
-838 -31 0
838 31 0
-839 -347 0
839 347 0
-840 -350 0
840 350 0
-841 -353 0
841 353 0
-842 -356 0
842 356 0
-843 -358 0
843 358 0
-844 -361 0
844 361 0
-845 -364 0
845 364 0
-846 -367 0
846 367 0
-847 -370 0
847 370 0
-848 -372 0
848 372 0
-849 -28 0
849 28 0
-850 -375 0
850 375 0
-851 -378 0
851 378 0
-852 -381 0
852 381 0
-853 -384 0
853 384 0
-854 -387 0
854 387 0
-855 -44 0
855 44 0
-856 -390 0
856 390 0
-857 -393 0
857 393 0
-858 -396 0
858 396 0
-859 -399 0
859 399 0
-860 -402 0
860 402 0
-861 -405 0
861 405 0
-862 -408 0
862 408 0
-863 -13 0
863 13 0
-864 -411 0
864 411 0
-865 -414 0
865 414 0
-866 -417 0
866 417 0
-867 -420 0
867 420 0
-868 -423 0
868 423 0
-869 -426 0
869 426 0
-870 -429 0
870 429 0
-871 -432 0
871 432 0
-872 -435 0
872 435 0
-873 -438 0
873 438 0
-874 -441 0
874 441 0
-875 -444 0
875 444 0
-876 -447 0
876 447 0
-877 -450 0
877 450 0
-878 -453 0
878 453 0
-879 -456 0
879 456 0
-880 -459 0
880 459 0
-881 -461 0
881 461 0
-882 -464 0
882 464 0
-883 -467 0
883 467 0
-884 -470 0
884 470 0
-885 -473 0
885 473 0
-886 -476 0
886 476 0
-887 -479 0
887 479 0
-888 -482 0
888 482 0
-889 -485 0
889 485 0
-890 -488 0
890 488 0
-891 -491 0
891 491 0
-892 -494 0
892 494 0
-893 -497 0
893 497 0
-894 -500 0
894 500 0
-895 -503 0
895 503 0
-896 -506 0
896 506 0
-897 -509 0
897 509 0
-898 -512 0
898 512 0
-899 -515 0
899 515 0
-900 -518 0
900 518 0
-901 -521 0
901 521 0
-902 -524 0
902 524 0
-903 -527 0
903 527 0
-904 -529 0
904 529 0
-905 -532 0
905 532 0
-906 -535 0
906 535 0
-907 -538 0
907 538 0
-908 -541 0
908 541 0
-909 -544 0
909 544 0
-910 -547 0
910 547 0
-911 -550 0
911 550 0
-912 -553 0
912 553 0
-913 -556 0
913 556 0
-914 -559 0
914 559 0
-915 -562 0
915 562 0
-916 -565 0
916 565 0
-917 -568 0
917 568 0
-918 -571 0
918 571 0
-919 -574 0
919 574 0
-920 -577 0
920 577 0
-921 -580 0
921 580 0
-922 -583 0
922 583 0
-923 -586 0
923 586 0
-924 -589 0
924 589 0
-925 -592 0
925 592 0
-926 -595 0
926 595 0
-927 -41 0
927 41 0
-928 -598 0
928 598 0
-929 -601 0
929 601 0
-930 -604 0
930 604 0
-931 -607 0
931 607 0
-932 -610 0
932 610 0
-933 -613 0
933 613 0
-934 -616 0
934 616 0
-935 -619 0
935 619 0
-936 -622 0
936 622 0
-937 -625 0
937 625 0
-938 -627 0
938 627 0
-939 -630 0
939 630 0
-940 -633 0
940 633 0
-941 -636 0
941 636 0
-942 -639 0
942 639 0
-943 -642 0
943 642 0
-944 -644 0
944 644 0
-945 -647 0
945 647 0
-946 -650 0
946 650 0
-947 -653 0
947 653 0
-948 -656 0
948 656 0
-949 -659 0
949 659 0
-950 -662 0
950 662 0
-951 -665 0
951 665 0
-952 -668 0
952 668 0
-953 -671 0
953 671 0
-954 -674 0
954 674 0
-955 -677 0
955 677 0
-956 -680 0
956 680 0
-957 -683 0
957 683 0
-958 -686 0
958 686 0
-959 -689 0
959 689 0
-960 -692 0
960 692 0
693 0
